NAME : eil51.out.tour
COMMENT : Tour for eil51.tsp (Length 640.901)
TYPE : TOUR
DIMENSION : 51
TOUR_SECTION
1
32
11
38
5
9
50
16
2
34
30
21
29
49
10
39
22
27
51
46
12
47
4
17
37
15
44
42
19
41
13
40
45
33
18
48
6
14
25
8
26
31
28
3
20
35
36
23
7
43
24
1
